data_DPSULO
#This CIF has been generated from an entry in the Cambridge Structural Database
_database_code_depnum_ccdc_archive 'CCDC 1145410'
_database_code_CSD               DPSULO
loop_
_citation_id
_citation_doi
_citation_year
1 10.1007/BF01636042 1974
_audit_creation_method           'Created from the CSD'
_audit_update_record             
;
2020-12-13 downloaded from the CCDC.
;
_database_code_NBS               510253
_chemical_formula_moiety         'C12 H10 O2 S1'
_chemical_name_systematic        'Diphenyl sulfone'
_chemical_absolute_configuration unk
_diffrn_ambient_temperature      295
_exptl_crystal_density_diffrn    1.351
#These two values have been output from a single CSD field.
_refine_ls_R_factor_gt           0.038
_refine_ls_wR_factor_gt          0.038
_diffrn_radiation_probe          x-ray
_symmetry_cell_setting           monoclinic
_symmetry_space_group_name_H-M   'P 21/c'
_symmetry_Int_Tables_number      14
_space_group_name_Hall           '-P 2ybc'
loop_
_symmetry_equiv_pos_site_id
_symmetry_equiv_pos_as_xyz
1 x,y,z
2 -x,1/2+y,1/2-z
3 -x,-y,-z
4 x,1/2-y,1/2+z
_cell_length_a                   12.225(4)
_cell_length_b                   7.830(2)
_cell_length_c                   11.328(2)
_cell_angle_alpha                90
_cell_angle_beta                 98.32(3)
_cell_angle_gamma                90
_cell_volume                     1072.92
_cell_formula_units_Z            4
loop_
_atom_site_label
_atom_site_type_symbol
_atom_site_fract_x
_atom_site_fract_y
_atom_site_fract_z
C1 C 0.38090 0.15930 0.13970
C2 C 0.08930 -0.24150 -0.10000
C3 C 0.13190 -0.29070 0.01360
C4 C 0.17820 -0.17080 0.09570
C5 C 0.45980 0.06850 0.21420
C6 C 0.56930 0.07590 0.19510
C7 C 0.59820 0.17100 0.10250
C8 C 0.51870 0.25900 0.02750
C9 C 0.40950 0.25530 0.04570
C10 C 0.18000 -0.00100 0.06120
C11 C 0.13750 0.04920 -0.05380
C12 C 0.09220 -0.07310 -0.13400
H1 H 0.05400 -0.31700 -0.15300
H2 H 0.13500 -0.40400 0.03500
H3 H 0.20800 -0.20200 0.16700
H4 H 0.43800 0.01300 0.28200
H5 H 0.62500 0.01800 0.24900
H6 H 0.67400 0.17900 0.08900
H7 H 0.53700 0.32100 -0.03400
H8 H 0.35400 0.31400 -0.00600
H9 H 0.13900 0.16400 -0.07700
H10 H 0.06500 -0.04100 -0.21900
O1 O 0.19290 0.31580 0.13150
O2 O 0.23830 0.08820 0.28270
S1 S 0.24135 0.15250 0.16432


